BAYES
324
2 2 2 2 2 2 2 2 2 2 2 2 2 2 2 2 2 2 2 2 2 2 2 2 2 2 2 2 2 2 2 2 2 2 2 2 2 2 2 2 2 2 2 2 2 2 2 2 2 2 2 2 2 2 2 2 2 2 2 2 2 2 2 2 2 2 2 2 2 2 2 2 2 2 2 2 2 2 2 2 2 2 2 2 2 2 2 2 2 2 2 2 2 2 2 2 2 2 2 2 2 2 2 2 2 2 2 2 2 2 2 2 2 2 2 2 2 2 2 2 2 2 2 2 2 2 2 2 2 2 2 2 2 2 2 2 2 2 2 2 2 2 2 2 2 2 2 2 2 2 2 2 2 2 2 2 2 2 2 2 2 2 2 2 2 2 2 2 2 2 2 2 2 2 2 2 2 2 2 2 2 2 2 2 2 2 2 2 2 2 2 2 2 2 2 2 2 2 2 2 2 2 2 2 2 2 2 2 2 2 2 2 2 2 2 2 2 2 2 2 2 2 2 2 2 2 2 2 2 2 2 2 2 2 2 2 2 2 2 2 2 2 2 2 2 2 2 2 2 2 2 2 2 2 2 2 2 2 2 2 2 2 2 2 2 2 2 2 2 2 2 2 2 2 2 2 2 2 2 2 2 2 2 2 2 2 2 2 2 2 2 2 2 2 2 2 2 2 2 2 2 2 2 2 2 2 2 2 2 2 2 2 2 2 2 2 2 2 2 2 2 2 2 2 
324
3	1	61	0
3	6	152	1
3	64	302	2
3	4	100	3
3	5	99	4
2	98	5
3	7	96	6
3	8	95	7
3	9	146	8
3	3	93	9
3	11	241	10
3	16	148	11
3	13	323	12
3	10	322	13
3	15	311	14
3	20	310	15
3	17	62	16
3	80	308	17
3	19	144	18
3	24	249	19
3	21	246	20
3	18	245	21
2	243	22
3	12	150	23
3	25	232	24
3	22	230	25
3	2	161	26
3	28	49	27
3	29	48	28
3	30	306	29
3	31	303	30
3	32	297	31
3	33	295	32
3	34	162	33
3	35	97	34
2	78	35
3	39	104	36
3	36	103	37
3	260	102	38
3	38	101	39
3	43	108	40
3	40	107	41
3	37	106	42
3	42	105	43
3	45	91	44
3	140	90	45
3	41	94	46
3	186	121	47
3	306	45	48
3	48	44	49
2	276	50
3	54	151	51
3	65	229	52
3	143	160	53
3	53	159	54
3	58	158	55
2	50	56
3	60	156	57
3	57	155	58
3	61	154	59
3	59	153	60
3	152	14	61
3	308	165	62
3	121	118	63
3	130	321	64
3	161	198	65
3	67	312	66
3	79	314	67
2	274	68
3	70	316	69
3	71	315	70
3	72	318	71
3	73	317	72
3	74	320	73
3	196	319	74
3	175	83	75
3	26	65	76
3	222	248	77
2	175	78
3	69	313	79
3	82	305	80
3	63	222	81
3	44	299	82
3	85	4	83
3	83	3	84
2	5	85
3	89	7	86
3	86	6	87
3	84	9	88
3	88	8	89
3	87	1	90
3	90	0	91
3	149	130	92
3	100	19	93
3	107	247	94
3	146	21	95
3	95	20	96
3	78	75	97
2	22	98
3	98	25	99
3	99	24	100
3	102	252	101
3	182	251	102
3	104	254	103
3	101	253	104
3	106	256	105
3	103	255	106
3	108	258	107
3	105	257	108
3	112	30	109
3	109	29	110
3	114	32	111
3	111	31	112
3	115	34	113
3	113	33	114
2	35	115
3	76	52	116
3	164	26	117
3	27	201	118
3	185	88	119
3	110	28	120
3	120	27	121
3	123	272	122
3	128	271	123
3	125	274	124
3	122	273	125
3	127	276	126
3	141	275	127
3	129	56	128
3	126	50	129
3	131	244	130
3	81	77	131
3	124	68	132
3	134	216	133
3	138	215	134
3	136	214	135
3	133	213	136
2	212	137
3	139	211	138
3	137	210	139
3	147	87	140
3	142	218	141
3	135	217	142
3	55	157	143
3	249	225	144
3	304	111	145
3	93	18	146
3	195	86	147
3	62	172	148
3	263	131	149
3	323	173	150
3	159	231	151
3	96	15	152
3	154	238	153
3	14	237	154
3	156	240	155
3	153	239	156
3	158	234	157
3	155	233	158
3	160	236	159
3	157	235	160
3	302	242	161
3	97	185	162
3	206	113	163
3	184	2	164
3	166	58	165
3	167	57	166
3	168	60	167
3	0	59	168
3	170	54	169
3	171	53	170
3	172	143	171
3	165	55	172
3	169	51	173
2	286	174
2	85	175
3	177	284	176
3	174	283	177
3	179	282	178
3	176	281	179
3	181	280	180
3	178	279	181
3	183	278	182
3	180	277	183
3	92	64	184
3	75	84	185
3	300	120	186
3	188	205	187
3	189	204	188
3	190	203	189
3	191	202	190
3	192	209	191
3	193	208	192
2	207	193
3	117	76	194
3	119	89	195
3	197	200	196
3	187	199	197
3	242	12	198
3	205	142	199
3	199	141	200
3	49	82	201
3	209	134	202
3	202	133	203
3	203	136	204
3	204	135	205
2	115	206
2	137	207
3	207	139	208
3	208	138	209
2	212	210
2	210	211
1	212
2	216	213
2	213	214
2	211	215
2	215	216
2	214	217
2	217	218
3	220	266	219
3	221	265	220
2	264	221
3	118	262	222
3	224	270	223
3	225	269	224
3	226	268	225
3	219	267	226
3	228	260	227
3	223	259	228
3	198	23	229
3	243	220	230
3	236	296	231
3	230	219	232
3	240	294	233
3	233	293	234
3	234	292	235
3	235	291	236
3	311	290	237
3	237	289	238
3	238	288	239
3	239	287	240
3	148	171	241
3	307	13	242
2	221	243
3	77	250	244
3	144	224	245
3	245	223	246
3	258	66	247
3	262	17	248
3	232	226	249
3	248	16	250
3	278	74	251
3	251	73	252
3	252	72	253
3	253	71	254
3	254	70	255
3	255	69	256
3	256	79	257
3	257	67	258
3	270	183	259
3	259	182	260
3	194	116	261
3	201	80	262
3	309	81	263
2	174	264
3	264	177	265
3	265	176	266
3	266	179	267
3	267	178	268
3	268	181	269
3	269	180	270
2	56	271
2	271	272
2	272	273
2	273	274
2	218	275
2	275	276
3	280	197	277
3	277	196	278
3	282	188	279
3	279	187	280
3	284	190	281
3	281	189	282
3	286	192	283
3	283	191	284
3	250	11	285
2	193	286
3	288	37	287
3	289	36	288
3	290	39	289
3	227	38	290
3	292	41	291
3	293	40	292
3	294	43	293
3	287	42	294
3	162	119	295
3	291	46	296
3	295	195	297
3	145	112	298
3	91	168	299
3	301	110	300
3	298	109	301
3	321	307	302
3	297	147	303
3	163	114	304
3	299	167	305
3	303	140	306
3	285	10	307
3	305	166	308
3	47	63	309
3	246	228	310
3	310	227	311
3	314	132	312
3	316	125	313
3	313	124	314
3	318	123	315
3	315	122	316
3	320	129	317
3	317	128	318
3	200	127	319
3	319	126	320
3	244	285	321
3	241	170	322
3	322	169	323

8
 0.00000000 1.00000000
 0.00000000 1.00000000
 1.00000000 0.00000000
 0.00000000 1.00000000

8
 0.00000000 1.00000000
 1.00000000 0.00000000
 1.00000000 0.00000000
 0.00000000 1.00000000

8
 0.00000000 1.00000000
 1.00000000 0.00000000
 1.00000000 0.00000000
 0.00000000 1.00000000

8
 0.00000000 1.00000000
 0.00000000 1.00000000
 1.00000000 0.00000000
 0.00000000 1.00000000

8
 0.00000000 1.00000000
 0.00000000 1.00000000
 1.00000000 0.00000000
 0.00000000 1.00000000

4
 1.00000000 0.00000000
 0.00000000 1.00000000

8
 0.00000000 1.00000000
 0.00000000 1.00000000
 1.00000000 0.00000000
 1.00000000 0.00000000

8
 0.07914920 0.92085100
 0.15938900 0.84061100
 0.49186600 0.50813400
 0.63704700 0.36295300

8
 0.00000000 1.00000000
 1.00000000 0.00000000
 0.00000000 1.00000000
 0.00000000 1.00000000

8
 1.00000000 0.00000000
 1.00000000 0.00000000
 1.00000000 0.00000000
 0.00000000 1.00000000

8
 0.00000000 1.00000000
 1.00000000 0.00000000
 1.00000000 0.00000000
 1.00000000 0.00000000

8
 0.49806500 0.50193500
 0.03144820 0.96855200
 0.41777100 0.58222900
 0.39838500 0.60161500

8
 0.00000000 1.00000000
 0.00000000 1.00000000
 0.00000000 1.00000000
 1.00000000 0.00000000

8
 1.00000000 0.00000000
 0.00000000 1.00000000
 0.00000000 1.00000000
 1.00000000 0.00000000

8
 1.00000000 0.00000000
 0.00000000 1.00000000
 0.00000000 1.00000000
 1.00000000 0.00000000

8
 1.00000000 0.00000000
 0.00000000 1.00000000
 0.00000000 1.00000000
 1.00000000 0.00000000

8
 1.00000000 0.00000000
 0.00000000 1.00000000
 1.00000000 0.00000000
 1.00000000 0.00000000

8
 0.72778100 0.27221900
 0.41114900 0.58885100
 0.86112000 0.13888000
 0.46973500 0.53026500

8
 1.00000000 0.00000000
 0.00000000 1.00000000
 1.00000000 0.00000000
 0.00000000 1.00000000

8
 1.00000000 0.00000000
 1.00000000 0.00000000
 1.00000000 0.00000000
 0.00000000 1.00000000

8
 0.00000000 1.00000000
 0.00000000 1.00000000
 0.00000000 1.00000000
 1.00000000 0.00000000

8
 1.00000000 0.00000000
 1.00000000 0.00000000
 1.00000000 0.00000000
 0.00000000 1.00000000

4
 0.36491100 0.63508900
 0.83186100 0.16813900

8
 0.00000000 1.00000000
 1.00000000 0.00000000
 0.00000000 1.00000000
 1.00000000 0.00000000

8
 1.00000000 0.00000000
 1.00000000 0.00000000
 0.00000000 1.00000000
 0.00000000 1.00000000

8
 1.00000000 0.00000000
 1.00000000 0.00000000
 0.00000000 1.00000000
 1.00000000 0.00000000

8
 1.00000000 0.00000000
 1.00000000 0.00000000
 0.00000000 1.00000000
 0.00000000 1.00000000

8
 1.00000000 0.00000000
 1.00000000 0.00000000
 0.00000000 1.00000000
 1.00000000 0.00000000

8
 1.00000000 0.00000000
 0.00000000 1.00000000
 1.00000000 0.00000000
 1.00000000 0.00000000

8
 0.00000000 1.00000000
 1.00000000 0.00000000
 1.00000000 0.00000000
 0.00000000 1.00000000

8
 1.00000000 0.00000000
 0.00000000 1.00000000
 0.00000000 1.00000000
 1.00000000 0.00000000

8
 1.00000000 0.00000000
 0.00000000 1.00000000
 0.00000000 1.00000000
 0.00000000 1.00000000

8
 1.00000000 0.00000000
 0.00000000 1.00000000
 1.00000000 0.00000000
 0.00000000 1.00000000

8
 0.00000000 1.00000000
 1.00000000 0.00000000
 0.00000000 1.00000000
 0.00000000 1.00000000

8
 0.00000000 1.00000000
 0.00000000 1.00000000
 1.00000000 0.00000000
 1.00000000 0.00000000

4
 0.00000000 1.00000000
 1.00000000 0.00000000

8
 1.00000000 0.00000000
 0.00000000 1.00000000
 1.00000000 0.00000000
 1.00000000 0.00000000

8
 0.02113830 0.97886200
 0.11743900 0.88256100
 0.41511400 0.58488600
 0.07529660 0.92470300

8
 0.00000000 1.00000000
 0.00000000 1.00000000
 1.00000000 0.00000000
 0.00000000 1.00000000

8
 0.00000000 1.00000000
 0.00000000 1.00000000
 0.00000000 1.00000000
 1.00000000 0.00000000

8
 1.00000000 0.00000000
 1.00000000 0.00000000
 0.00000000 1.00000000
 1.00000000 0.00000000

8
 0.00000000 1.00000000
 1.00000000 0.00000000
 0.00000000 1.00000000
 0.00000000 1.00000000

8
 0.00000000 1.00000000
 0.00000000 1.00000000
 1.00000000 0.00000000
 0.00000000 1.00000000

8
 0.00000000 1.00000000
 0.00000000 1.00000000
 0.00000000 1.00000000
 1.00000000 0.00000000

8
 0.00000000 1.00000000
 1.00000000 0.00000000
 0.00000000 1.00000000
 1.00000000 0.00000000

8
 0.00000000 1.00000000
 1.00000000 0.00000000
 0.00000000 1.00000000
 1.00000000 0.00000000

8
 0.62067300 0.37932700
 0.68192900 0.31807100
 0.92131200 0.07868810
 0.27146600 0.72853400

8
 0.00000000 1.00000000
 1.00000000 0.00000000
 0.00000000 1.00000000
 0.00000000 1.00000000

8
 0.00000000 1.00000000
 1.00000000 0.00000000
 1.00000000 0.00000000
 1.00000000 0.00000000

8
 1.00000000 0.00000000
 1.00000000 0.00000000
 0.00000000 1.00000000
 0.00000000 1.00000000

4
 0.00000000 1.00000000
 1.00000000 0.00000000

8
 0.00000000 1.00000000
 0.00000000 1.00000000
 0.00000000 1.00000000
 1.00000000 0.00000000

8
 1.00000000 0.00000000
 0.00000000 1.00000000
 0.00000000 1.00000000
 0.00000000 1.00000000

8
 0.71906000 0.28094000
 0.06309350 0.93690600
 0.59885900 0.40114100
 0.30546600 0.69453400

8
 1.00000000 0.00000000
 0.00000000 1.00000000
 1.00000000 0.00000000
 0.00000000 1.00000000

8
 0.37220200 0.62779800
 0.89202900 0.10797100
 0.04480740 0.95519300
 0.14912600 0.85087400

4
 0.50586200 0.49413800
 0.13687400 0.86312600

8
 0.36253000 0.63747000
 0.97926500 0.02073500
 0.21111100 0.78888900
 0.52092600 0.47907400

8
 0.00000000 1.00000000
 1.00000000 0.00000000
 1.00000000 0.00000000
 0.00000000 1.00000000

8
 0.00000000 1.00000000
 1.00000000 0.00000000
 1.00000000 0.00000000
 0.00000000 1.00000000

8
 0.44292400 0.55707600
 0.45024900 0.54975100
 0.08314810 0.91685200
 0.80950800 0.19049200

8
 0.00000000 1.00000000
 1.00000000 0.00000000
 1.00000000 0.00000000
 1.00000000 0.00000000

8
 0.00000000 1.00000000
 1.00000000 0.00000000
 0.00000000 1.00000000
 0.00000000 1.00000000

8
 1.00000000 0.00000000
 1.00000000 0.00000000
 0.00000000 1.00000000
 1.00000000 0.00000000

8
 0.00000000 1.00000000
 1.00000000 0.00000000
 1.00000000 0.00000000
 1.00000000 0.00000000

8
 0.00000000 1.00000000
 0.00000000 1.00000000
 0.00000000 1.00000000
 1.00000000 0.00000000

8
 0.00000000 1.00000000
 1.00000000 0.00000000
 0.00000000 1.00000000
 0.00000000 1.00000000

8
 0.00000000 1.00000000
 1.00000000 0.00000000
 1.00000000 0.00000000
 1.00000000 0.00000000

4
 1.00000000 0.00000000
 0.00000000 1.00000000

8
 0.00000000 1.00000000
 0.00000000 1.00000000
 1.00000000 0.00000000
 1.00000000 0.00000000

8
 0.00000000 1.00000000
 0.00000000 1.00000000
 1.00000000 0.00000000
 1.00000000 0.00000000

8
 1.00000000 0.00000000
 0.00000000 1.00000000
 1.00000000 0.00000000
 0.00000000 1.00000000

8
 1.00000000 0.00000000
 0.00000000 1.00000000
 0.00000000 1.00000000
 0.00000000 1.00000000

8
 1.00000000 0.00000000
 0.00000000 1.00000000
 1.00000000 0.00000000
 1.00000000 0.00000000

8
 1.00000000 0.00000000
 0.00000000 1.00000000
 1.00000000 0.00000000
 1.00000000 0.00000000

8
 0.50558700 0.49441300
 0.40369000 0.59631000
 0.94943400 0.05056640
 0.06409070 0.93590900

8
 1.00000000 0.00000000
 0.00000000 1.00000000
 0.00000000 1.00000000
 0.00000000 1.00000000

8
 0.00660417 0.99339600
 0.22944100 0.77055900
 0.51554100 0.48445900
 0.36611600 0.63388400

4
 0.00000000 1.00000000
 1.00000000 0.00000000

8
 0.00000000 1.00000000
 1.00000000 0.00000000
 1.00000000 0.00000000
 1.00000000 0.00000000

8
 0.32427100 0.67572900
 0.95723100 0.04276860
 0.11518100 0.88481900
 0.07207120 0.92792900

8
 1.00000000 0.00000000
 0.00000000 1.00000000
 0.00000000 1.00000000
 0.00000000 1.00000000

8
 0.00000000 1.00000000
 0.00000000 1.00000000
 0.00000000 1.00000000
 1.00000000 0.00000000

8
 0.00000000 1.00000000
 0.00000000 1.00000000
 1.00000000 0.00000000
 1.00000000 0.00000000

8
 1.00000000 0.00000000
 0.00000000 1.00000000
 0.00000000 1.00000000
 1.00000000 0.00000000

4
 1.00000000 0.00000000
 0.00000000 1.00000000

8
 0.00000000 1.00000000
 0.00000000 1.00000000
 1.00000000 0.00000000
 0.00000000 1.00000000

8
 0.00000000 1.00000000
 1.00000000 0.00000000
 0.00000000 1.00000000
 0.00000000 1.00000000

8
 1.00000000 0.00000000
 1.00000000 0.00000000
 0.00000000 1.00000000
 0.00000000 1.00000000

8
 0.00000000 1.00000000
 0.00000000 1.00000000
 1.00000000 0.00000000
 1.00000000 0.00000000

8
 0.00000000 1.00000000
 1.00000000 0.00000000
 1.00000000 0.00000000
 1.00000000 0.00000000

8
 0.22996000 0.77004000
 0.05051280 0.94948700
 0.62090900 0.37909100
 0.10652800 0.89347200

8
 1.00000000 0.00000000
 1.00000000 0.00000000
 1.00000000 0.00000000
 0.00000000 1.00000000

8
 0.46018300 0.53981700
 0.24297200 0.75702800
 0.15162000 0.84838000
 0.61097000 0.38903000

8
 0.00000000 1.00000000
 1.00000000 0.00000000
 1.00000000 0.00000000
 0.00000000 1.00000000

8
 1.00000000 0.00000000
 0.00000000 1.00000000
 1.00000000 0.00000000
 1.00000000 0.00000000

8
 1.00000000 0.00000000
 1.00000000 0.00000000
 0.00000000 1.00000000
 0.00000000 1.00000000

8
 0.29987900 0.70012100
 0.25071800 0.74928200
 0.66816700 0.33183300
 0.20000800 0.79999200

4
 1.00000000 0.00000000
 0.00000000 1.00000000

8
 0.00000000 1.00000000
 1.00000000 0.00000000
 0.00000000 1.00000000
 0.00000000 1.00000000

8
 1.00000000 0.00000000
 1.00000000 0.00000000
 0.00000000 1.00000000
 1.00000000 0.00000000

8
 0.00000000 1.00000000
 1.00000000 0.00000000
 0.00000000 1.00000000
 0.00000000 1.00000000

8
 1.00000000 0.00000000
 1.00000000 0.00000000
 0.00000000 1.00000000
 0.00000000 1.00000000

8
 0.00000000 1.00000000
 0.00000000 1.00000000
 0.00000000 1.00000000
 1.00000000 0.00000000

8
 0.70318700 0.29681300
 0.55677700 0.44322300
 0.29387400 0.70612600
 0.58026700 0.41973300

8
 0.44826500 0.55173500
 0.56809900 0.43190100
 0.54261400 0.45738600
 0.11966400 0.88033600

8
 1.00000000 0.00000000
 1.00000000 0.00000000
 0.00000000 1.00000000
 0.00000000 1.00000000

8
 1.00000000 0.00000000
 1.00000000 0.00000000
 0.00000000 1.00000000
 1.00000000 0.00000000

8
 0.00000000 1.00000000
 0.00000000 1.00000000
 0.00000000 1.00000000
 1.00000000 0.00000000

8
 0.00000000 1.00000000
 0.00000000 1.00000000
 1.00000000 0.00000000
 1.00000000 0.00000000

8
 0.82530400 0.17469600
 0.77565600 0.22434400
 0.66106100 0.33893900
 0.72325700 0.27674300

8
 1.00000000 0.00000000
 1.00000000 0.00000000
 0.00000000 1.00000000
 1.00000000 0.00000000

8
 0.00000000 1.00000000
 0.00000000 1.00000000
 1.00000000 0.00000000
 0.00000000 1.00000000

8
 1.00000000 0.00000000
 0.00000000 1.00000000
 1.00000000 0.00000000
 0.00000000 1.00000000

8
 0.71022100 0.28977900
 0.69510800 0.30489200
 0.68588000 0.31412000
 0.96038800 0.03961160

4
 0.89795300 0.10204700
 0.53847300 0.46152700

8
 1.00000000 0.00000000
 0.00000000 1.00000000
 0.00000000 1.00000000
 0.00000000 1.00000000

8
 0.00000000 1.00000000
 0.00000000 1.00000000
 1.00000000 0.00000000
 1.00000000 0.00000000

8
 1.00000000 0.00000000
 0.00000000 1.00000000
 1.00000000 0.00000000
 1.00000000 0.00000000

8
 1.00000000 0.00000000
 1.00000000 0.00000000
 0.00000000 1.00000000
 1.00000000 0.00000000

8
 1.00000000 0.00000000
 0.00000000 1.00000000
 1.00000000 0.00000000
 1.00000000 0.00000000

8
 0.60643700 0.39356300
 0.59926800 0.40073200
 0.66610900 0.33389100
 0.29231700 0.70768300

8
 1.00000000 0.00000000
 0.00000000 1.00000000
 0.00000000 1.00000000
 1.00000000 0.00000000

8
 0.00000000 1.00000000
 1.00000000 0.00000000
 1.00000000 0.00000000
 1.00000000 0.00000000

8
 0.08753020 0.91247000
 0.40305900 0.59694100
 0.71970300 0.28029700
 0.52010700 0.47989300

8
 0.20450700 0.79549300
 0.09803550 0.90196400
 0.30410100 0.69589900
 0.23561300 0.76438700

8
 0.16744600 0.83255400
 0.93138300 0.06861670
 0.43257700 0.56742300
 0.44958000 0.55042000

8
 0.00000000 1.00000000
 1.00000000 0.00000000
 0.00000000 1.00000000
 1.00000000 0.00000000

8
 0.45266000 0.54734000
 0.21313400 0.78686600
 0.46611100 0.53388900
 0.98408900 0.01591060

8
 0.00000000 1.00000000
 1.00000000 0.00000000
 1.00000000 0.00000000
 1.00000000 0.00000000

8
 0.68990200 0.31009800
 0.69208700 0.30791300
 0.50521600 0.49478400
 0.41315900 0.58684100

8
 0.00000000 1.00000000
 0.00000000 1.00000000
 0.00000000 1.00000000
 1.00000000 0.00000000

8
 0.26431200 0.73568800
 0.85668600 0.14331400
 0.80880000 0.19120000
 0.16157900 0.83842100

8
 1.00000000 0.00000000
 1.00000000 0.00000000
 0.00000000 1.00000000
 1.00000000 0.00000000

8
 0.00000000 1.00000000
 0.00000000 1.00000000
 0.00000000 1.00000000
 1.00000000 0.00000000

8
 1.00000000 0.00000000
 0.00000000 1.00000000
 0.00000000 1.00000000
 1.00000000 0.00000000

8
 0.50658000 0.49342000
 0.35265800 0.64734200
 0.58330000 0.41670000
 0.82558100 0.17441900

4
 0.97603600 0.02396400
 0.58677700 0.41322300

8
 0.14461900 0.85538100
 0.23054100 0.76945900
 0.41752700 0.58247300
 0.24604800 0.75395200

8
 0.98657100 0.01342920
 0.67887200 0.32112800
 0.91053400 0.08946590
 0.70211800 0.29788200

8
 0.00000000 1.00000000
 1.00000000 0.00000000
 1.00000000 0.00000000
 0.00000000 1.00000000

8
 0.00000000 1.00000000
 0.00000000 1.00000000
 0.00000000 1.00000000
 1.00000000 0.00000000

8
 0.00000000 1.00000000
 0.00000000 1.00000000
 1.00000000 0.00000000
 0.00000000 1.00000000

8
 1.00000000 0.00000000
 0.00000000 1.00000000
 1.00000000 0.00000000
 1.00000000 0.00000000

8
 0.00000000 1.00000000
 0.00000000 1.00000000
 1.00000000 0.00000000
 0.00000000 1.00000000

8
 1.00000000 0.00000000
 0.00000000 1.00000000
 0.00000000 1.00000000
 0.00000000 1.00000000

8
 0.00000000 1.00000000
 1.00000000 0.00000000
 0.00000000 1.00000000
 0.00000000 1.00000000

8
 0.61260000 0.38740000
 0.33907800 0.66092200
 0.90827800 0.09172220
 0.74195400 0.25804600

8
 1.00000000 0.00000000
 0.00000000 1.00000000
 0.00000000 1.00000000
 0.00000000 1.00000000

8
 0.77870900 0.22129100
 0.81206800 0.18793200
 0.53010900 0.46989100
 0.67595800 0.32404200

8
 0.12935300 0.87064700
 0.79386300 0.20613700
 0.23604000 0.76396000
 0.57448700 0.42551300

8
 0.00000000 1.00000000
 1.00000000 0.00000000
 1.00000000 0.00000000
 0.00000000 1.00000000

8
 0.00000000 1.00000000
 0.00000000 1.00000000
 0.00000000 1.00000000
 1.00000000 0.00000000

8
 0.38957000 0.61043000
 0.29946500 0.70053500
 0.29310600 0.70689400
 0.01638430 0.98361600

8
 1.00000000 0.00000000
 0.00000000 1.00000000
 1.00000000 0.00000000
 1.00000000 0.00000000

8
 1.00000000 0.00000000
 0.00000000 1.00000000
 1.00000000 0.00000000
 1.00000000 0.00000000

8
 1.00000000 0.00000000
 0.00000000 1.00000000
 0.00000000 1.00000000
 0.00000000 1.00000000

8
 1.00000000 0.00000000
 1.00000000 0.00000000
 0.00000000 1.00000000
 1.00000000 0.00000000

8
 0.00000000 1.00000000
 0.00000000 1.00000000
 1.00000000 0.00000000
 0.00000000 1.00000000

8
 0.51006600 0.48993400
 0.66033600 0.33966400
 0.17885500 0.82114500
 0.80317300 0.19682700

8
 0.00000000 1.00000000
 0.00000000 1.00000000
 1.00000000 0.00000000
 0.00000000 1.00000000

8
 1.00000000 0.00000000
 1.00000000 0.00000000
 0.00000000 1.00000000
 1.00000000 0.00000000

8
 1.00000000 0.00000000
 1.00000000 0.00000000
 0.00000000 1.00000000
 0.00000000 1.00000000

8
 1.00000000 0.00000000
 1.00000000 0.00000000
 1.00000000 0.00000000
 0.00000000 1.00000000

8
 0.29983400 0.70016600
 0.09622880 0.90377100
 0.24442500 0.75557500
 0.40915000 0.59085000

8
 0.70561000 0.29439000
 0.57119200 0.42880800
 0.31381300 0.68618700
 0.77272000 0.22728000

8
 0.00000000 1.00000000
 0.00000000 1.00000000
 1.00000000 0.00000000
 0.00000000 1.00000000

8
 1.00000000 0.00000000
 0.00000000 1.00000000
 1.00000000 0.00000000
 1.00000000 0.00000000

8
 1.00000000 0.00000000
 1.00000000 0.00000000
 1.00000000 0.00000000
 0.00000000 1.00000000

8
 1.00000000 0.00000000
 1.00000000 0.00000000
 1.00000000 0.00000000
 0.00000000 1.00000000

8
 1.00000000 0.00000000
 0.00000000 1.00000000
 0.00000000 1.00000000
 0.00000000 1.00000000

8
 1.00000000 0.00000000
 1.00000000 0.00000000
 0.00000000 1.00000000
 1.00000000 0.00000000

8
 0.45493400 0.54506600
 0.69777000 0.30223000
 0.26807200 0.73192800
 0.07774980 0.92225000

8
 0.00000000 1.00000000
 1.00000000 0.00000000
 0.00000000 1.00000000
 1.00000000 0.00000000

4
 0.00000000 1.00000000
 1.00000000 0.00000000

4
 0.61589400 0.38410600
 0.79751200 0.20248800

8
 0.00000000 1.00000000
 1.00000000 0.00000000
 1.00000000 0.00000000
 0.00000000 1.00000000

8
 1.00000000 0.00000000
 1.00000000 0.00000000
 1.00000000 0.00000000
 0.00000000 1.00000000

8
 1.00000000 0.00000000
 1.00000000 0.00000000
 0.00000000 1.00000000
 0.00000000 1.00000000

8
 1.00000000 0.00000000
 0.00000000 1.00000000
 1.00000000 0.00000000
 1.00000000 0.00000000

8
 1.00000000 0.00000000
 1.00000000 0.00000000
 1.00000000 0.00000000
 0.00000000 1.00000000

8
 1.00000000 0.00000000
 1.00000000 0.00000000
 0.00000000 1.00000000
 1.00000000 0.00000000

8
 0.42643500 0.57356500
 0.68333500 0.31666500
 0.67139900 0.32860100
 0.66281900 0.33718100

8
 0.17348600 0.82651400
 0.93705900 0.06294110
 0.11879200 0.88120800
 0.29333800 0.70666200

8
 1.00000000 0.00000000
 0.00000000 1.00000000
 1.00000000 0.00000000
 0.00000000 1.00000000

8
 1.00000000 0.00000000
 1.00000000 0.00000000
 1.00000000 0.00000000
 0.00000000 1.00000000

8
 0.00000000 1.00000000
 0.00000000 1.00000000
 0.00000000 1.00000000
 1.00000000 0.00000000

8
 1.00000000 0.00000000
 0.00000000 1.00000000
 1.00000000 0.00000000
 1.00000000 0.00000000

8
 0.00000000 1.00000000
 1.00000000 0.00000000
 1.00000000 0.00000000
 1.00000000 0.00000000

8
 0.00000000 1.00000000
 0.00000000 1.00000000
 1.00000000 0.00000000
 1.00000000 0.00000000

8
 0.00000000 1.00000000
 0.00000000 1.00000000
 0.00000000 1.00000000
 1.00000000 0.00000000

8
 0.00000000 1.00000000
 0.00000000 1.00000000
 0.00000000 1.00000000
 1.00000000 0.00000000

8
 0.00000000 1.00000000
 1.00000000 0.00000000
 1.00000000 0.00000000
 1.00000000 0.00000000

4
 1.00000000 0.00000000
 0.00000000 1.00000000

8
 0.09007820 0.90992200
 0.11771200 0.88228800
 0.30343800 0.69656200
 0.41598000 0.58402000

8
 0.05167760 0.94832200
 0.61661200 0.38338800
 0.35876500 0.64123500
 0.74780000 0.25220000

8
 0.00000000 1.00000000
 1.00000000 0.00000000
 1.00000000 0.00000000
 0.00000000 1.00000000

8
 0.00000000 1.00000000
 1.00000000 0.00000000
 0.00000000 1.00000000
 0.00000000 1.00000000

8
 1.00000000 0.00000000
 1.00000000 0.00000000
 1.00000000 0.00000000
 0.00000000 1.00000000

8
 1.00000000 0.00000000
 0.00000000 1.00000000
 1.00000000 0.00000000
 1.00000000 0.00000000

8
 0.48718400 0.51281600
 0.59766900 0.40233100
 0.79285000 0.20715000
 0.26375500 0.73624500

8
 1.00000000 0.00000000
 0.00000000 1.00000000
 1.00000000 0.00000000
 0.00000000 1.00000000

8
 0.00000000 1.00000000
 0.00000000 1.00000000
 1.00000000 0.00000000
 0.00000000 1.00000000

8
 1.00000000 0.00000000
 0.00000000 1.00000000
 1.00000000 0.00000000
 1.00000000 0.00000000

8
 0.23135000 0.76865000
 0.04642780 0.95357200
 0.69131000 0.30869000
 0.49566200 0.50433800

8
 0.50010900 0.49989100
 0.65724100 0.34275900
 0.67967900 0.32032100
 0.09065080 0.90934900

4
 0.99332800 0.00667235
 0.99894200 0.00105830

4
 0.59054200 0.40945800
 0.61423900 0.38576100

8
 0.05665280 0.94334700
 0.59832800 0.40167200
 0.08286660 0.91713300
 0.02981210 0.97018800

8
 0.00000000 1.00000000
 0.00000000 1.00000000
 0.00000000 1.00000000
 1.00000000 0.00000000

4
 1.00000000 0.00000000
 0.00000000 1.00000000

4
 1.00000000 0.00000000
 0.00000000 1.00000000

2
 0.84622600 0.15377400

4
 0.96389000 0.03610970
 0.01053470 0.98946500

4
 1.00000000 0.00000000
 0.00000000 1.00000000

4
 0.00000000 1.00000000
 1.00000000 0.00000000

4
 0.00000000 1.00000000
 1.00000000 0.00000000

4
 0.00000000 1.00000000
 1.00000000 0.00000000

4
 0.00000000 1.00000000
 1.00000000 0.00000000

8
 0.32438700 0.67561300
 0.93574700 0.06425330
 0.24811800 0.75188200
 0.76912900 0.23087100

8
 1.00000000 0.00000000
 1.00000000 0.00000000
 0.00000000 1.00000000
 0.00000000 1.00000000

4
 0.85172300 0.14827700
 0.29260400 0.70739600

8
 0.00000000 1.00000000
 1.00000000 0.00000000
 1.00000000 0.00000000
 1.00000000 0.00000000

8
 1.00000000 0.00000000
 1.00000000 0.00000000
 1.00000000 0.00000000
 0.00000000 1.00000000

8
 0.00000000 1.00000000
 1.00000000 0.00000000
 1.00000000 0.00000000
 1.00000000 0.00000000

8
 0.53220900 0.46779100
 0.57712100 0.42287900
 0.62729300 0.37270700
 0.62291800 0.37708200

8
 0.00000000 1.00000000
 0.00000000 1.00000000
 1.00000000 0.00000000
 1.00000000 0.00000000

8
 0.00000000 1.00000000
 0.00000000 1.00000000
 1.00000000 0.00000000
 1.00000000 0.00000000

8
 0.00000000 1.00000000
 1.00000000 0.00000000
 1.00000000 0.00000000
 0.00000000 1.00000000

8
 0.09776700 0.90223300
 0.51844000 0.48156000
 0.71524900 0.28475100
 0.28790800 0.71209200

8
 1.00000000 0.00000000
 0.00000000 1.00000000
 1.00000000 0.00000000
 0.00000000 1.00000000

8
 1.00000000 0.00000000
 1.00000000 0.00000000
 0.00000000 1.00000000
 0.00000000 1.00000000

8
 0.10654100 0.89345900
 0.26439200 0.73560800
 0.11584100 0.88415900
 0.57002400 0.42997600

8
 0.00000000 1.00000000
 0.00000000 1.00000000
 1.00000000 0.00000000
 0.00000000 1.00000000

8
 0.93181000 0.06818990
 0.85137600 0.14862400
 0.05641680 0.94358300
 0.95517300 0.04482710

8
 0.00000000 1.00000000
 1.00000000 0.00000000
 1.00000000 0.00000000
 1.00000000 0.00000000

8
 0.00000000 1.00000000
 1.00000000 0.00000000
 1.00000000 0.00000000
 0.00000000 1.00000000

8
 0.00000000 1.00000000
 1.00000000 0.00000000
 1.00000000 0.00000000
 1.00000000 0.00000000

8
 0.00000000 1.00000000
 0.00000000 1.00000000
 0.00000000 1.00000000
 1.00000000 0.00000000

8
 1.00000000 0.00000000
 0.00000000 1.00000000
 0.00000000 1.00000000
 1.00000000 0.00000000

8
 1.00000000 0.00000000
 0.00000000 1.00000000
 0.00000000 1.00000000
 0.00000000 1.00000000

8
 0.01384770 0.98615200
 0.38896400 0.61103600
 0.88731800 0.11268200
 0.63475700 0.36524300

8
 1.00000000 0.00000000
 0.00000000 1.00000000
 0.00000000 1.00000000
 1.00000000 0.00000000

4
 0.92946700 0.07053280
 0.74737100 0.25262900

8
 1.00000000 0.00000000
 1.00000000 0.00000000
 0.00000000 1.00000000
 1.00000000 0.00000000

8
 0.00000000 1.00000000
 1.00000000 0.00000000
 1.00000000 0.00000000
 0.00000000 1.00000000

8
 0.00000000 1.00000000
 1.00000000 0.00000000
 0.00000000 1.00000000
 0.00000000 1.00000000

8
 1.00000000 0.00000000
 0.00000000 1.00000000
 0.00000000 1.00000000
 1.00000000 0.00000000

8
 0.89885000 0.10115000
 0.03896380 0.96103600
 0.86894100 0.13105900
 0.72997700 0.27002300

8
 0.00000000 1.00000000
 1.00000000 0.00000000
 1.00000000 0.00000000
 0.00000000 1.00000000

8
 1.00000000 0.00000000
 1.00000000 0.00000000
 1.00000000 0.00000000
 0.00000000 1.00000000

8
 0.00000000 1.00000000
 1.00000000 0.00000000
 0.00000000 1.00000000
 1.00000000 0.00000000

8
 0.00000000 1.00000000
 1.00000000 0.00000000
 0.00000000 1.00000000
 0.00000000 1.00000000

8
 0.00000000 1.00000000
 0.00000000 1.00000000
 0.00000000 1.00000000
 1.00000000 0.00000000

8
 1.00000000 0.00000000
 0.00000000 1.00000000
 1.00000000 0.00000000
 1.00000000 0.00000000

8
 0.18147000 0.81853000
 0.27014600 0.72985400
 0.74129200 0.25870800
 0.92874000 0.07126040

8
 0.00000000 1.00000000
 0.00000000 1.00000000
 0.00000000 1.00000000
 1.00000000 0.00000000

8
 1.00000000 0.00000000
 0.00000000 1.00000000
 1.00000000 0.00000000
 1.00000000 0.00000000

8
 1.00000000 0.00000000
 1.00000000 0.00000000
 1.00000000 0.00000000
 0.00000000 1.00000000

8
 0.00000000 1.00000000
 1.00000000 0.00000000
 1.00000000 0.00000000
 1.00000000 0.00000000

8
 1.00000000 0.00000000
 0.00000000 1.00000000
 0.00000000 1.00000000
 1.00000000 0.00000000

8
 1.00000000 0.00000000
 0.00000000 1.00000000
 0.00000000 1.00000000
 1.00000000 0.00000000

8
 1.00000000 0.00000000
 1.00000000 0.00000000
 0.00000000 1.00000000
 1.00000000 0.00000000

8
 0.00000000 1.00000000
 1.00000000 0.00000000
 0.00000000 1.00000000
 1.00000000 0.00000000

4
 0.00000000 1.00000000
 1.00000000 0.00000000

8
 0.00000000 1.00000000
 0.00000000 1.00000000
 1.00000000 0.00000000
 1.00000000 0.00000000

8
 1.00000000 0.00000000
 1.00000000 0.00000000
 0.00000000 1.00000000
 0.00000000 1.00000000

8
 0.00000000 1.00000000
 0.00000000 1.00000000
 1.00000000 0.00000000
 1.00000000 0.00000000

8
 0.47343700 0.52656300
 0.87518900 0.12481100
 0.50681300 0.49318700
 0.87262700 0.12737300

8
 0.89559500 0.10440500
 0.38475700 0.61524300
 0.26680000 0.73320000
 0.57095000 0.42905000

8
 0.37034500 0.62965500
 0.80308200 0.19691800
 0.48470300 0.51529700
 0.05415830 0.94584200

4
 0.40862700 0.59137300
 0.14579500 0.85420500

4
 0.00000000 1.00000000
 1.00000000 0.00000000

4
 1.00000000 0.00000000
 0.00000000 1.00000000

4
 1.00000000 0.00000000
 0.00000000 1.00000000

4
 1.00000000 0.00000000
 0.00000000 1.00000000

4
 1.00000000 0.00000000
 0.00000000 1.00000000

8
 1.00000000 0.00000000
 0.00000000 1.00000000
 1.00000000 0.00000000
 0.00000000 1.00000000

8
 1.00000000 0.00000000
 1.00000000 0.00000000
 1.00000000 0.00000000
 0.00000000 1.00000000

8
 0.33617000 0.66383000
 0.50054100 0.49945900
 0.40131400 0.59868600
 0.37296100 0.62703900

8
 1.00000000 0.00000000
 0.00000000 1.00000000
 1.00000000 0.00000000
 1.00000000 0.00000000

8
 1.00000000 0.00000000
 0.00000000 1.00000000
 1.00000000 0.00000000
 1.00000000 0.00000000

8
 1.00000000 0.00000000
 0.00000000 1.00000000
 0.00000000 1.00000000
 0.00000000 1.00000000

8
 0.00000000 1.00000000
 1.00000000 0.00000000
 1.00000000 0.00000000
 0.00000000 1.00000000

8
 0.00000000 1.00000000
 1.00000000 0.00000000
 0.00000000 1.00000000
 1.00000000 0.00000000

8
 0.00000000 1.00000000
 1.00000000 0.00000000
 1.00000000 0.00000000
 1.00000000 0.00000000

4
 0.00000000 1.00000000
 1.00000000 0.00000000

8
 0.00000000 1.00000000
 1.00000000 0.00000000
 0.00000000 1.00000000
 1.00000000 0.00000000

8
 0.34604900 0.65395100
 0.05246430 0.94753600
 0.37044400 0.62955600
 0.83069300 0.16930700

8
 0.86810600 0.13189400
 0.39584800 0.60415200
 0.48207700 0.51792300
 0.49102400 0.50897600

8
 1.00000000 0.00000000
 1.00000000 0.00000000
 0.00000000 1.00000000
 1.00000000 0.00000000

8
 0.00000000 1.00000000
 0.00000000 1.00000000
 1.00000000 0.00000000
 0.00000000 1.00000000

8
 0.00000000 1.00000000
 0.00000000 1.00000000
 1.00000000 0.00000000
 0.00000000 1.00000000

8
 0.00000000 1.00000000
 0.00000000 1.00000000
 1.00000000 0.00000000
 1.00000000 0.00000000

8
 1.00000000 0.00000000
 0.00000000 1.00000000
 1.00000000 0.00000000
 0.00000000 1.00000000

8
 0.00000000 1.00000000
 1.00000000 0.00000000
 1.00000000 0.00000000
 0.00000000 1.00000000

8
 0.00000000 1.00000000
 1.00000000 0.00000000
 1.00000000 0.00000000
 0.00000000 1.00000000

8
 1.00000000 0.00000000
 1.00000000 0.00000000
 1.00000000 0.00000000
 0.00000000 1.00000000

8
 0.98172900 0.01827080
 0.56484000 0.43516000
 0.17114800 0.82885200
 0.45446800 0.54553200

8
 1.00000000 0.00000000
 1.00000000 0.00000000
 0.00000000 1.00000000
 1.00000000 0.00000000

8
 0.00000000 1.00000000
 1.00000000 0.00000000
 1.00000000 0.00000000
 1.00000000 0.00000000

8
 0.00000000 1.00000000
 0.00000000 1.00000000
 0.00000000 1.00000000
 1.00000000 0.00000000

8
 0.25016700 0.74983300
 0.64435000 0.35565000
 0.71759000 0.28241000
 0.42084100 0.57915900

8
 0.08282660 0.91717300
 0.11521600 0.88478400
 0.06648940 0.93351100
 0.83112700 0.16887300

8
 0.42789200 0.57210800
 0.21518800 0.78481200
 0.51428900 0.48571100
 0.84459000 0.15541000

8
 0.31601900 0.68398100
 0.75424200 0.24575800
 0.89515500 0.10484500
 0.53366800 0.46633200

8
 1.00000000 0.00000000
 0.00000000 1.00000000
 0.00000000 1.00000000
 1.00000000 0.00000000

8
 0.00000000 1.00000000
 0.00000000 1.00000000
 1.00000000 0.00000000
 1.00000000 0.00000000

8
 0.20258500 0.79741500
 0.32337300 0.67662700
 0.44513300 0.55486700
 0.07628540 0.92371500

8
 1.00000000 0.00000000
 0.00000000 1.00000000
 1.00000000 0.00000000
 1.00000000 0.00000000

8
 1.00000000 0.00000000
 0.00000000 1.00000000
 1.00000000 0.00000000
 0.00000000 1.00000000

8
 0.00000000 1.00000000
 1.00000000 0.00000000
 1.00000000 0.00000000
 1.00000000 0.00000000

8
 0.85356200 0.14643800
 0.27680700 0.72319300
 0.82981800 0.17018200
 0.70459500 0.29540500

8
 1.00000000 0.00000000
 1.00000000 0.00000000
 0.00000000 1.00000000
 1.00000000 0.00000000

8
 1.00000000 0.00000000
 1.00000000 0.00000000
 0.00000000 1.00000000
 0.00000000 1.00000000

8
 1.00000000 0.00000000
 1.00000000 0.00000000
 0.00000000 1.00000000
 0.00000000 1.00000000

8
 0.00000000 1.00000000
 0.00000000 1.00000000
 1.00000000 0.00000000
 0.00000000 1.00000000

8
 0.00000000 1.00000000
 0.00000000 1.00000000
 1.00000000 0.00000000
 0.00000000 1.00000000

8
 1.00000000 0.00000000
 0.00000000 1.00000000
 0.00000000 1.00000000
 1.00000000 0.00000000

8
 0.78834100 0.21165900
 0.88904700 0.11095300
 0.10585500 0.89414500
 0.98834000 0.01166020

8
 1.00000000 0.00000000
 0.00000000 1.00000000
 1.00000000 0.00000000
 0.00000000 1.00000000

8
 1.00000000 0.00000000
 0.00000000 1.00000000
 1.00000000 0.00000000
 1.00000000 0.00000000

8
 0.00000000 1.00000000
 0.00000000 1.00000000
 1.00000000 0.00000000
 0.00000000 1.00000000

8
 1.00000000 0.00000000
 1.00000000 0.00000000
 1.00000000 0.00000000
 0.00000000 1.00000000

